# 3D periodic bin: measure mass flow of multispheres at 2 levels in the domain

atom_style  granular
atom_modify map array sort 0 0
boundary    f f p
newton      off

communicate single vel yes
processors  * 1 1

units       si

region      reg block -0.021 0.021 -0.021 0.021 0.0 0.2 units box
read_restart post/restart/massflow_ms.restart

neighbor    0.00025 bin
neigh_modify delay 0

# material properties required for pair style
fix m1 all property/global youngsModulus peratomtype 1.e8
fix m2 all property/global poissonsRatio peratomtype 0.35
fix m3 all property/global coefficientRestitution peratomtypepair 1 0.9
fix m4 all property/global coefficientFriction peratomtypepair 1 0.5

# pair style
pair_style  gran model hertz tangential history
pair_coeff  * *

timestep    0.000001

# particle insertion
region ins_reg block -0.02  0.02 -0.02 0.02 0.005 0.195 units box

fix pts1 all particletemplate/multisphere 1 atom_type 1 density constant 2500 nspheres 50 ntry 1000000 spheres file data/stone1.multisphere scale 0.0005 type 1
fix pdd1 all particledistribution/discrete 127981 1 pts1 1.0

fix ins all insert/pack seed 100001 distributiontemplate pdd1 vel constant 0. 0. -0.5 &
    insert_every once overlapcheck yes region ins_reg ntry_mc 10000 volumefraction_region 0.04

# integrator
fix integr all multisphere

# surface mesh for mass flow measurement
fix surface_mf1 all mesh/surface file meshes/massflow.stl type 1 scale 1.0 move 0.0 0.0 0.110
fix surface_mf2 all mesh/surface file meshes/massflow.stl type 1 scale 1.0 move 0.0 0.0 0.002

# mass flow measurement
# count particles only once, define outside by 3D point 'on the outside'
fix massflow1 all massflow/mesh mesh surface_mf1 count once point_at_outlet 0.0 0.0 0.0 append post/massflow1_particle_data.txt
fix massflow2 all massflow/mesh mesh surface_mf2 count once point_at_outlet 0.0 0.0 0.0 append post/massflow2_particle_data.txt

variable time   equal step*dt        # current simulation time (step and dt are built-in variables)
variable m1     equal f_massflow1[1] # total mass that has crossed the mesh since simulation start
variable np1    equal f_massflow1[2] # total number of particles that have crossed the mesh since simulation start
variable mdot1  equal f_massflow1[3] # current mass flow
variable npdot1 equal f_massflow1[4] # current particle flow rate
variable m2     equal f_massflow2[1] # total mass that has crossed the mesh since simulation start
variable np2    equal f_massflow2[2] # total number of particles that have crossed the mesh since simulation start
variable mdot2  equal f_massflow2[3] # current mass flow
variable npdot2 equal f_massflow2[4] # current particle flow rate

fix pmassout1 all print 5000 "${time} ${m1} ${np1} ${mdot1} ${npdot1}" screen no title none append post/massflow1.txt
fix pmassout2 all print 5000 "${time} ${m2} ${np2} ${mdot2} ${npdot2}" screen no title none append post/massflow2.txt

# output settings
thermo_style    custom step atoms ke
thermo          2000
thermo_modify   lost ignore norm no
compute_modify  thermo_temp dynamic yes

dump dmp all custom 2000 post/periodic_bin_ms_*.massflow id type radius mass x y z vx vy vz

run 500000 upto

