echo both
#Contact model example

#########################################################################################
#                               user defined settings: settings                         #
#########################################################################################
variable    rad     equal 0.00025          		# particle radius
variable    dens    equal 2500           		# particle density
variable    ym      equal 5e6            		# Young's modulus
variable    pr      equal 0.45	   		        # Poisson ratio
variable    fric    equal 0.2			        # coefficient of friction
variable    rest    equal 0.9       		    # coefficient of resitution
variable    rf      equal 0.15	                # coefficient of rolling friction
variable    dt      equal 1e-5       		    # time step width
variable    cg      equal 1                     # coarse graining

variable    VLiqu   equal 0.384                 #0.000001 #0.0128(real)*30                # liquid volume/particle volume
variable    sigma   equal 0.07197               # surfaceTension
#########################################################################################
#                               internal settings - do not touch                        #
#########################################################################################
variable	stlDiam         equal 0.025          	                        # diam of orig. geometry
variable	scale           equal (30*${rad}*${cg})/${stlDiam}   	        # scaling factor for geometry
variable	cylinderRad     equal ${scale}*${stlDiam}/2.
variable	cylinderHeight  equal ${scale}*0.017
variable 	mParticles      equal ${cylinderRad}*${cylinderRad}*3.1415*${cylinderHeight}*0.7*${dens}    # mass of parcels

atom_style		granular
atom_modify		map array
boundary		f f f
newton			off
processors      2 2 1

communicate		single vel yes

units			si

region			reg block -0.01 0.01 -0.01 0.01 -0.01 0.01 units box
create_box		2 reg

neighbor		${rad} bin
neigh_modify    delay 0


#Material properties required for granular pair styles

fix 		m1 all property/global youngsModulus peratomtype ${ym} ${ym}
fix 		m2 all property/global poissonsRatio peratomtype ${pr} ${pr}
fix 		m3 all property/global coefficientRestitution peratomtypepair 2 ${rest} ${rest} ${rest} ${rest}
fix 		m4 all property/global coefficientFriction peratomtypepair 2 ${fric} ${fric} ${fric} ${fric}
#fix 		m5 all property/global characteristicVelocity scalar 2.
fix 		m5 all property/global coefficientRollingFriction peratomtypepair 2 ${rf} ${rf} ${rf} ${rf}
#fix		m6 all property/global cohesionEnergyDensity peratomtypepair 1 30000
fix 		m6 all property/global liquidVolume scalar ${VLiqu}
fix		    m7 all property/global surfaceTension scalar ${sigma}

#pair style
pair_style 	gran model hertz tangential history cohesion capillary rolling_friction cdt capillaryModel Willett #Hertzian with cohesion
pair_coeff	* *

timestep	${dt}

fix		gravi all gravity 9.81 vector 0.0 0.0 -1.0

fix		pt1 all mesh/surface/stress file meshes/bottomBig.stl type 1 scale ${scale}
fix		pt2 all mesh/surface/stress file meshes/compFace.stl type 1 scale ${scale} move 0. 0. 0.002
fix		pt3 all mesh/surface/stress file meshes/cylinder.stl type 2 scale ${scale}
fix		granwalls all wall/gran model hertz tangential history mesh n_meshes 3 meshes pt1 pt2 pt3 store_force yes

#region for insertion
fix		inface all mesh/surface file meshes/entry.stl type 2 scale ${scale} move 0. 0. 0.


#distributions for insertion
variable rad2 equal ${rad}*1.05
variable rad3 equal ${rad}*0.95
fix		pts1 all particletemplate/sphere 1 atom_type 1 density constant ${dens} radius constant ${rad}
fix		pts2 all particletemplate/sphere 1 atom_type 1 density constant ${dens} radius constant ${rad2}
fix		pts3 all particletemplate/sphere 1 atom_type 1 density constant ${dens} radius constant ${rad3}
fix		pdd1 all particledistribution/discrete 1. 3 pts1 0.4 pts2 0.3 pts3 0.3

region	bc cylinder z 0. 0. ${cylinderRad} 0 ${cylinderHeight} units box
fix 	ins all insert/pack seed 100001 distributiontemplate pdd1 insert_every once overlapcheck yes all_in yes mass_in_region ${mParticles} region bc


#apply nve integration to all particles that are inserted as single particles
fix		integr all nve/sphere

#output settings, include total thermal energy
fix		ts all check/timestep/gran 20000 0.1 0.1
compute		rke all erotate/sphere
thermo_style	custom step atoms ke c_rke vol
thermo		    1000
thermo_modify	lost ignore norm no
compute_modify	thermo_temp dynamic yes


#insert the first particles so that dump is not empty
run		1
dump		dmp all custom 1000 post/dump*.cohesion id type x y z vx vy vz fx fy fz omegax omegay omegaz radius f_force_granwalls[1] f_force_granwalls[2] f_force_granwalls[3]
dump 		dumpstress all mesh/vtk 1000 post/dump*.vtk stress pt1 pt2 pt3 inface
dump 		inface all mesh/vtk 1000 post/dump_inface*.vtk stress inface

#insert particles
run		5000

##################################################
variable vthre equal 0.001
variable vcmx equal vcm(all,x)
variable vcmy equal vcm(all,y)
variable vcmz equal vcm(all,z)
variable vave equal sqrt(v_vcmx*v_vcmx+v_vcmy*v_vcmy+v_vcmz*v_vcmz)
variable time equal step*dt
fix			dmpTH all print 100 "${time} ${vave}" screen no title "t vave" file post/vave.txt
label loop
  print "-----> Checking Velocity..."
  if "${vave}<${vthre}" then "jump SELF endloop"
  print "-----> v ave ${vave}, v threshold ${vthre}, continuing run"
  set group all vx 0. vy 0. vz 0.
  run 1000
jump SELF loop
label endloop
#################################################

# remove cylinder
fix		movecyl all move/mesh mesh pt3 linear 0. 0. 0.02
run		15000
unfix 	movecyl

#compress cake
#fix 		moveface all move/mesh mesh pt2 linear 0. 0. -0.001

##################################################
variable vthre equal 0.00005
variable vcmx equal vcm(all,x)
variable vcmy equal vcm(all,y)
variable vcmz equal vcm(all,z)
variable vave equal sqrt(v_vcmx*v_vcmx+v_vcmy*v_vcmy+v_vcmz*v_vcmz)
label loop2
  print "-----> Checking Velocity..."
  if "${vave}<${vthre}" then "jump SELF endloop2"
  print "-----> v ave ${vave}, v threshold ${vthre}, continuing run"
  set group all vx 0. vy 0. vz 0.
  run 1000
jump SELF loop2
label endloop2
#################################################

