# testing if insert/pack/dense works with mesh region
# provide r_part as variable via -var switch

atom_style      granular
atom_modify     map array
boundary        f f f
newton          off

communicate     single vel yes
#processors      2 2 1

units           si

region          reg block -1 1 -1 1 -0.05 1.05 units box

create_box      1 reg

neighbor        0.01 bin
neigh_modify    delay 0


# material properties required for granular pair styles

fix         m1 all property/global youngsModulus peratomtype 5.e6
fix         m2 all property/global poissonsRatio peratomtype 0.45
fix         m3 all property/global coefficientRestitution peratomtypepair 1 0.9
fix         m4 all property/global coefficientFriction peratomtypepair 1 0.05

# apply nve integration to all particles that are inserted as single particles
fix        integr all nve/sphere

# pair style
pair_style gran model hertz tangential history #Hertzian without cohesion
pair_coeff    * *

timestep    0.00001

#fix        gravi all gravity 9.81 vector 0.0 0.0 -1.0

# particle distributions
fix        pts1 all particletemplate/sphere 1 atom_type 1 density constant 2500 radius constant ${r_part}

fix        pdd1 all particledistribution/discrete 1 1 pts1 1.

# load mesh region
region        mesh_reg mesh/tet file data/test.vtk  scale 1. move 0. 0. 0.  rotate 0. 0. 0. units box

fix ins_pack_dense all insert/pack/dense seed 123 region mesh_reg distributiontemplate pdd1

# output settings
compute         rke all erotate/sphere
thermo_style    custom step atoms ke c_rke vol
thermo          1000
thermo_modify   lost ignore norm no
compute_modify  thermo_temp dynamic yes

# let insertion happen
run 1

dump dmp all custom 1 post/dump*.stream &
     id type x y z vx vy vz fx fy fz omegax omegay omegaz radius

#run for dump
run 1

