################################################################################
# chemistry test case (unreacted shrinking core model)
# particle insertion into domain
################################################################################

atom_style      granular
atom_modify     map array
communicate     single vel yes

boundary        f f f
newton          off

units           si
processors      * 1 1

region          reg block 0. 1.5 0. 0.5 0. 0.5 units box
create_box      1 reg

neighbor        0.0005 bin
neigh_modify    delay 0

################################################################################
# material properties required for granular pair styles
fix         m1 all property/global youngsModulus peratomtype 5.e6
fix         m2 all property/global poissonsRatio peratomtype 0.45
fix         m3 all property/global coefficientRestitution peratomtypepair 1 0.3
fix         m4 all property/global coefficientFriction peratomtypepair 1 0.5

# pair style
pair_style  gran model hertz tangential history
pair_coeff  * *

# timestep
timestep    0.01

# create single particle in a specific spot
create_atoms 1 single 0.75 0.25 0.25 units box
set atom 1 diameter 0.01106028 density 4300 vx 0 vy 0 vz 0

# screen output
thermo_style    custom step atoms vol
thermo          1000
thermo_modify   lost ignore norm no
compute_modify  thermo_temp dynamic no extra 0

# insert the first particles so that dump is not empty
run     1
dump    dmp all custom 100 post/dump.liggghts_init id type x y z vx vy vz fx fy fz radius mass

run     10 upto

write_restart post/restart/liggghts.restart

