################################################################################
# chemistry test case (unreacted shrinking core model)
# reduction of multiple particles under ISO 4695 conditions without CFD coupling
################################################################################

log             log.liggghts
thermo_log      post/thermo.txt

atom_style      granular
atom_modify     map array
communicate     single vel yes

boundary        f f f
newton          off

units           si
processors      * 1 1

region          reg block -0.5 0.5 -0.5 0.5 0.0 1.4 units box
create_box      1 reg

neighbor        0.0005 bin
neigh_modify    delay 0

################################################################################
# material properties required for granular pair styles
fix         m1 all property/global youngsModulus peratomtype 5.e6
fix         m2 all property/global poissonsRatio peratomtype 0.45
fix         m3 all property/global coefficientRestitution peratomtypepair 1 0.3
fix         m4 all property/global coefficientFriction peratomtypepair 1 0.5

# pair style
pair_style  gran model hertz tangential history
pair_coeff  * *

# timestep
timestep    0.02

################################################################################
# thermal properties
fix     ftco all property/global thermalConductivity peratomtype 1.4
fix     ftca all property/global thermalCapacity peratomtype 3000

################################################################################
# chemistry
# input fixes for fix chem/shrink/core that would otherwise be provided by fix
# couple/cfd/chemistry
fix     partTemp all property/atom partTemp scalar yes no no 1223.15 # Kelvin
fix     partNu   all property/atom partNu   scalar yes no no 0.00004125
fix     partRe   all property/atom partRe   scalar yes no no 2.7500
fix     partP    all property/atom partP    scalar yes no no 101325
# molar fractions
fix     X_CO     all property/atom X_CO  scalar yes no no 0.4
fix     X_CO2    all property/atom X_CO2 scalar yes no no 0.0
fix     X_N2     all property/atom X_N2  scalar yes no no 0.6
# molecular diffusion coefficient
fix     CO_diffCoeff all property/atom CO_diffCoeff scalar yes no no 0.00023
# output fixes for fix chem/shrink/core that would otherwise be provided by fix
# couple/cfd/chemistry
fix     Modified_CO  all property/atom Modified_CO  scalar yes yes no 0.0
fix     Modified_CO2 all property/atom Modified_CO2 scalar yes yes no 0.0
fix     reactionHeat all property/atom reactionHeat scalar yes no  no 0.0

################################################################################
# activate 3-layer unreacted shrinking core model
fix     cfd5 all chem/shrink/core speciesA CO molMassA 0.02801 &
        speciesC CO2 molMassC 0.04401 &
        scale_reduction_rate 2.0 nevery 25 #screen yes

# chemical properties for unreacted shrinking core model
#                                                w->Fe  m->w   h->m
fix     k0_CO all property/global k0_cfd5 vector    17    25   2700
fix     Ea_CO all property/global Ea_cfd5 vector 69488 73674 113859

# particle porosity/tortuosity/pore diameter
fix     porosity        all property/global porosity_all      vector 0.61 0.31 0.16 0.15
fix     tortuosity      all property/global tortuosity_all    scalar 3
fix     pore_diameter   all property/global pore_diameter_all vector 5.5e-7 5.5e-7 5.5e-7

# define layer properties
fix     LayerRelRadii   all property/atom relRadii vector yes no no  1.0 0.998 0.995 0.98

# define fix for layer densities
fix     LayerDensities  all property/global density_all vector 7870. 5740. 5170. 5240.

################################################################################

# particle template and distribution
fix		pts1 all particletemplate/sphere 4564381 atom_type 1 density constant 4300 radius constant 0.00553014
fix		pdd1 all particledistribution/discrete 1687691 1 pts1 1.0

# mesh and insertion
fix		ins_mesh all mesh/surface file meshes/insertion_face.stl type 1 scale 1.0
fix		ins all insert/stream seed 3681876 distributiontemplate pdd1 nparticles 5 &
		vel constant 0.0 0.0 -0.01 insert_every 2000 particlerate 0.025 &
		overlapcheck yes insertion_face ins_mesh

################################################################################

run     1

# screen output
variable mone equal mass[1]
thermo_style    custom step atoms ke v_mone
thermo          500
thermo_modify   lost ignore norm no
compute_modify  thermo_temp dynamic no extra 0

dump    dmp all custom 500 post/dump*.liggghts_stream id type x y z vx vy vz &
        fx fy fz radius mass f_fracRed[1] f_fracRed[2] f_fracRed[3] &
        f_partNu f_partRe f_partP f_partTemp f_CO_diffCoeff

run     10000 upto

################################################################################
# Write data into files for post-processing
variable WI     equal 100
variable time   equal time

# to check mass over time
variable m1     equal mass[1]
variable m2     equal mass[2]
variable m3     equal mass[3]
variable m4     equal mass[4]
variable m5     equal mass[5]

fix printmasslayer all print ${WI} "${time} ${m1} ${m2} ${m3} ${m4} ${m5}" &
    file post/mass5.dat title "#time mass1 mass2 mass3 mass4 mass4" screen no

# to check density over time
variable rho1   equal mass[1]/((4./3.)*PI*radius[1]*radius[1]*radius[1])
variable rho2   equal mass[2]/((4./3.)*PI*radius[2]*radius[2]*radius[2])
variable rho3   equal mass[3]/((4./3.)*PI*radius[3]*radius[3]*radius[3])
variable rho4   equal mass[4]/((4./3.)*PI*radius[4]*radius[4]*radius[4])
variable rho5   equal mass[5]/((4./3.)*PI*radius[5]*radius[5]*radius[5])

fix printrho all print ${WI} "${time} ${rho1} ${rho2} ${rho3} ${rho4} ${rho5}" &
    file post/rhoeff5.dat title "#time \rho_{1} \rho_{2} \rho_{3} \rho_{4} \rho_{5}" screen no

# effective layer densities
variable l1rhoeffatom atom f_rhoeff[1]
variable l2rhoeffatom atom f_rhoeff[2]
variable l3rhoeffatom atom f_rhoeff[3]
variable l4rhoeffatom atom f_rhoeff[4]

variable l1rhoeffatom1 equal v_l1rhoeffatom[1]
variable l2rhoeffatom1 equal v_l2rhoeffatom[1]
variable l3rhoeffatom1 equal v_l3rhoeffatom[1]
variable l4rhoeffatom1 equal v_l4rhoeffatom[1]

variable l1rhoeffatom2 equal v_l1rhoeffatom[2]
variable l2rhoeffatom2 equal v_l2rhoeffatom[2]
variable l3rhoeffatom2 equal v_l3rhoeffatom[2]
variable l4rhoeffatom2 equal v_l4rhoeffatom[2]

variable l1rhoeffatom3 equal v_l1rhoeffatom[3]
variable l2rhoeffatom3 equal v_l2rhoeffatom[3]
variable l3rhoeffatom3 equal v_l3rhoeffatom[3]
variable l4rhoeffatom3 equal v_l4rhoeffatom[3]

variable l1rhoeffatom4 equal v_l1rhoeffatom[4]
variable l2rhoeffatom4 equal v_l2rhoeffatom[4]
variable l3rhoeffatom4 equal v_l3rhoeffatom[4]
variable l4rhoeffatom4 equal v_l4rhoeffatom[4]

variable l1rhoeffatom5 equal v_l1rhoeffatom[5]
variable l2rhoeffatom5 equal v_l2rhoeffatom[5]
variable l3rhoeffatom5 equal v_l3rhoeffatom[5]
variable l4rhoeffatom5 equal v_l4rhoeffatom[5]

fix printrho1 all print ${WI} "${time} ${l1rhoeffatom1} ${l2rhoeffatom1} ${l3rhoeffatom1} ${l4rhoeffatom1}" &
    file post/rhoefflayeratom1.dat title "#time \rho_{eff1} \rho_{eff2} \rho_{eff3} \rho_{eff4}" screen no
fix printrho2 all print ${WI} "${time} ${l1rhoeffatom2} ${l2rhoeffatom2} ${l3rhoeffatom2} ${l4rhoeffatom2}" &
    file post/rhoefflayeratom2.dat title "#time \rho_{eff1} \rho_{eff2} \rho_{eff3} \rho_{eff4}" screen no
fix printrho3 all print ${WI} "${time} ${l1rhoeffatom3} ${l2rhoeffatom3} ${l3rhoeffatom3} ${l4rhoeffatom3}" &
    file post/rhoefflayeratom3.dat title "#time \rho_{eff1} \rho_{eff2} \rho_{eff3} \rho_{eff4}" screen no
fix printrho4 all print ${WI} "${time} ${l1rhoeffatom4} ${l2rhoeffatom4} ${l3rhoeffatom4} ${l4rhoeffatom4}" &
    file post/rhoefflayeratom4.dat title "#time \rho_{eff1} \rho_{eff2} \rho_{eff3} \rho_{eff4}" screen no
fix printrho5 all print ${WI} "${time} ${l1rhoeffatom5} ${l2rhoeffatom5} ${l3rhoeffatom5} ${l4rhoeffatom5}" &
    file post/rhoefflayeratom5.dat title "#time \rho_{eff1} \rho_{eff2} \rho_{eff3} \rho_{eff4}" screen no

# specific resistance terms depending on reacting gases
variable Aterm1atom atom f_Aterm_cfd5[1]
variable Aterm2atom atom f_Aterm_cfd5[2]
variable Aterm3atom atom f_Aterm_cfd5[3]

variable a_CO_1_atom1 equal v_Aterm1atom[1]
variable a_CO_2_atom1 equal v_Aterm2atom[1]
variable a_CO_3_atom1 equal v_Aterm3atom[1]

variable a_CO_1_atom2 equal v_Aterm1atom[2]
variable a_CO_2_atom2 equal v_Aterm2atom[2]
variable a_CO_3_atom2 equal v_Aterm3atom[2]

variable a_CO_1_atom3 equal v_Aterm1atom[3]
variable a_CO_2_atom3 equal v_Aterm2atom[3]
variable a_CO_3_atom3 equal v_Aterm3atom[3]

variable a_CO_1_atom4 equal v_Aterm1atom[4]
variable a_CO_2_atom4 equal v_Aterm2atom[4]
variable a_CO_3_atom4 equal v_Aterm3atom[4]

variable a_CO_1_atom5 equal v_Aterm1atom[5]
variable a_CO_2_atom5 equal v_Aterm2atom[5]
variable a_CO_3_atom5 equal v_Aterm3atom[5]

# chemical reaction resistance
fix printAterm1 all print ${WI} "${time} ${a_CO_1_atom1} ${a_CO_2_atom1} ${a_CO_3_atom1}" &
    file post/Atermatom1.dat title "#time A1_{CO}(w->Fe) A2_{CO}(m->w) A3_{CO}(h->m)" screen no
fix printAterm2 all print ${WI} "${time} ${a_CO_1_atom2} ${a_CO_2_atom2} ${a_CO_3_atom2}" &
    file post/Atermatom2.dat title "#time A1_{CO}(w->Fe) A2_{CO}(m->w) A3_{CO}(h->m)" screen no
fix printAterm3 all print ${WI} "${time} ${a_CO_1_atom3} ${a_CO_2_atom3} ${a_CO_3_atom3}" &
    file post/Atermatom3.dat title "#time A1_{CO}(w->Fe) A2_{CO}(m->w) A3_{CO}(h->m)" screen no
fix printAterm4 all print ${WI} "${time} ${a_CO_1_atom4} ${a_CO_2_atom4} ${a_CO_3_atom4}" &
    file post/Atermatom4.dat title "#time A1_{CO}(w->Fe) A2_{CO}(m->w) A3_{CO}(h->m)" screen no
fix printAterm5 all print ${WI} "${time} ${a_CO_1_atom5} ${a_CO_2_atom5} ${a_CO_3_atom5}" &
    file post/Atermatom5.dat title "#time A1_{CO}(w->Fe) A2_{CO}(m->w) A3_{CO}(h->m)" screen no


variable Bterm1atom atom f_Bterm_cfd5[1]
variable Bterm2atom atom f_Bterm_cfd5[2]
variable Bterm3atom atom f_Bterm_cfd5[3]

variable b_CO_1_atom1 equal v_Bterm1atom[1]
variable b_CO_2_atom1 equal v_Bterm2atom[1]
variable b_CO_3_atom1 equal v_Bterm3atom[1]

variable b_CO_1_atom2 equal v_Bterm1atom[2]
variable b_CO_2_atom2 equal v_Bterm2atom[2]
variable b_CO_3_atom2 equal v_Bterm3atom[2]

variable b_CO_1_atom3 equal v_Bterm1atom[3]
variable b_CO_2_atom3 equal v_Bterm2atom[3]
variable b_CO_3_atom3 equal v_Bterm3atom[3]

variable b_CO_1_atom4 equal v_Bterm1atom[4]
variable b_CO_2_atom4 equal v_Bterm2atom[4]
variable b_CO_3_atom4 equal v_Bterm3atom[4]

variable b_CO_1_atom5 equal v_Bterm1atom[5]
variable b_CO_2_atom5 equal v_Bterm2atom[5]
variable b_CO_3_atom5 equal v_Bterm3atom[5]

# diffusion resistance
fix printBterm1 all print ${WI} "${time} ${b_CO_1_atom1} ${b_CO_2_atom1} ${b_CO_3_atom1}" &
    file post/Btermatom1.dat title "#time B1_{CO}(Fe) B2_{CO}(w) B3_{CO}(m)" screen no
fix printBterm2 all print ${WI} "${time} ${b_CO_1_atom2} ${b_CO_2_atom2} ${b_CO_3_atom2}" &
    file post/Btermatom2.dat title "#time B1_{CO}(Fe) B2_{CO}(w) B3_{CO}(m)" screen no
fix printBterm3 all print ${WI} "${time} ${b_CO_1_atom3} ${b_CO_2_atom3} ${b_CO_3_atom3}" &
    file post/Btermatom3.dat title "#time B1_{CO}(Fe) B2_{CO}(w) B3_{CO}(m)" screen no
fix printBterm4 all print ${WI} "${time} ${b_CO_1_atom4} ${b_CO_2_atom4} ${b_CO_3_atom4}" &
    file post/Btermatom4.dat title "#time B1_{CO}(Fe) B2_{CO}(w) B3_{CO}(m)" screen no
fix printBterm5 all print ${WI} "${time} ${b_CO_1_atom5} ${b_CO_2_atom5} ${b_CO_3_atom5}" &
    file post/Btermatom5.dat title "#time B1_{CO}(Fe) B2_{CO}(w) B3_{CO}(m)" screen no

# fractional reduction
variable fr1atom atom f_fracRed[1]
variable fr2atom atom f_fracRed[2]
variable fr3atom atom f_fracRed[3]

variable fr1_atom1 equal v_fr1atom[1]
variable fr2_atom1 equal v_fr2atom[1]
variable fr3_atom1 equal v_fr3atom[1]

variable fr1_atom2 equal v_fr1atom[2]
variable fr2_atom2 equal v_fr2atom[2]
variable fr3_atom2 equal v_fr3atom[2]

variable fr1_atom3 equal v_fr1atom[3]
variable fr2_atom3 equal v_fr2atom[3]
variable fr3_atom3 equal v_fr3atom[3]

variable fr1_atom4 equal v_fr1atom[4]
variable fr2_atom4 equal v_fr2atom[4]
variable fr3_atom4 equal v_fr3atom[4]

variable fr1_atom5 equal v_fr1atom[5]
variable fr2_atom5 equal v_fr2atom[5]
variable fr3_atom5 equal v_fr3atom[5]

# calculate total fractional reduction
variable frOV_atom1 equal 1./9.*(v_fr3_atom1)+2./9.*(v_fr2_atom1)+6./9.*(v_fr1_atom1)
variable frOV_atom2 equal 1./9.*(v_fr3_atom2)+2./9.*(v_fr2_atom2)+6./9.*(v_fr1_atom2)
variable frOV_atom3 equal 1./9.*(v_fr3_atom3)+2./9.*(v_fr2_atom3)+6./9.*(v_fr1_atom3)
variable frOV_atom4 equal 1./9.*(v_fr3_atom4)+2./9.*(v_fr2_atom4)+6./9.*(v_fr1_atom4)
variable frOV_atom5 equal 1./9.*(v_fr3_atom5)+2./9.*(v_fr2_atom5)+6./9.*(v_fr1_atom5)

fix printfr1 all print ${WI} "${time} ${fr1_atom1} ${fr2_atom1} ${fr3_atom1} ${frOV_atom1}" &
    file post/fratom1.dat title "#time fr_{w->Fe} fr_{m->w} fr_{h->m} fr_{overall}" screen no
fix printfr2 all print ${WI} "${time} ${fr1_atom2} ${fr2_atom2} ${fr3_atom2} ${frOV_atom2}" &
    file post/fratom2.dat title "#time fr_{w->Fe} fr_{m->w} fr_{h->m} fr_{overall}" screen no
fix printfr3 all print ${WI} "${time} ${fr1_atom3} ${fr2_atom3} ${fr3_atom3} ${frOV_atom3}" &
    file post/fratom3.dat title "#time fr_{w->Fe} fr_{m->w} fr_{h->m} fr_{overall}" screen no
fix printfr4 all print ${WI} "${time} ${fr1_atom4} ${fr2_atom4} ${fr3_atom4} ${frOV_atom4}" &
    file post/fratom4.dat title "#time fr_{w->Fe} fr_{m->w} fr_{h->m} fr_{overall}" screen no
fix printfr5 all print ${WI} "${time} ${fr1_atom5} ${fr2_atom5} ${fr3_atom5} ${frOV_atom5}" &
    file post/fratom5.dat title "#time fr_{w->Fe} fr_{m->w} fr_{h->m} fr_{overall}" screen no

# layer radii
variable rr1atom atom f_LayerRelRadii[1]
variable rr2atom atom f_LayerRelRadii[2]
variable rr3atom atom f_LayerRelRadii[3]
variable rr4atom atom f_LayerRelRadii[4]

variable rr1atom1 equal v_rr1atom[1]
variable rr2atom1 equal v_rr2atom[1]
variable rr3atom1 equal v_rr3atom[1]
variable rr4atom1 equal v_rr4atom[1]

variable rr1atom2 equal v_rr1atom[2]
variable rr2atom2 equal v_rr2atom[2]
variable rr3atom2 equal v_rr3atom[2]
variable rr4atom2 equal v_rr4atom[2]

variable rr1atom3 equal v_rr1atom[3]
variable rr2atom3 equal v_rr2atom[3]
variable rr3atom3 equal v_rr3atom[3]
variable rr4atom3 equal v_rr4atom[3]

variable rr1atom4 equal v_rr1atom[4]
variable rr2atom4 equal v_rr2atom[4]
variable rr3atom4 equal v_rr3atom[4]
variable rr4atom4 equal v_rr4atom[4]

variable rr1atom5 equal v_rr1atom[5]
variable rr2atom5 equal v_rr2atom[5]
variable rr3atom5 equal v_rr3atom[5]
variable rr4atom5 equal v_rr4atom[5]

fix printRelRadii1 all print ${WI} "${time} ${rr1atom1} ${rr2atom1} ${rr3atom1} ${rr4atom1}" &
    file post/relRadiiatom1.dat title "#time relRad_{Fe} relRad_{w} relRad_{m} relRad_{h}" screen no
fix printRelRadii2 all print ${WI} "${time} ${rr1atom2} ${rr2atom2} ${rr3atom2} ${rr4atom2}" &
    file post/relRadiiatom2.dat title "#time relRad_{Fe} relRad_{w} relRad_{m} relRad_{h}" screen no
fix printRelRadii3 all print ${WI} "${time} ${rr1atom3} ${rr2atom3} ${rr3atom3} ${rr4atom3}" &
    file post/relRadiiatom3.dat title "#time relRad_{Fe} relRad_{w} relRad_{m} relRad_{h}" screen no
fix printRelRadii4 all print ${WI} "${time} ${rr1atom4} ${rr2atom4} ${rr3atom4} ${rr4atom4}" &
    file post/relRadiiatom4.dat title "#time relRad_{Fe} relRad_{w} relRad_{m} relRad_{h}" screen no
fix printRelRadii5 all print ${WI} "${time} ${rr1atom5} ${rr2atom5} ${rr3atom5} ${rr4atom5}" &
    file post/relRadiiatom5.dat title "#time relRad_{Fe} relRad_{w} relRad_{m} relRad_{h}" screen no

# layer masses
variable lmass1atom atom f_LayerMasses[1]
variable lmass2atom atom f_LayerMasses[2]
variable lmass3atom atom f_LayerMasses[3]
variable lmass4atom atom f_LayerMasses[4]

variable lmass1atom1 equal v_lmass1atom[1]
variable lmass2atom1 equal v_lmass2atom[1]
variable lmass3atom1 equal v_lmass3atom[1]
variable lmass4atom1 equal v_lmass4atom[1]
variable lmasstotatom1 equal v_lmass1atom[1]+v_lmass2atom[1]+v_lmass3atom[1]+v_lmass4atom[1]

variable lmass1atom2 equal v_lmass1atom[2]
variable lmass2atom2 equal v_lmass2atom[2]
variable lmass3atom2 equal v_lmass3atom[2]
variable lmass4atom2 equal v_lmass4atom[2]
variable lmasstotatom2 equal v_lmass1atom[2]+v_lmass2atom[2]+v_lmass3atom[2]+v_lmass4atom[2]

variable lmass1atom3 equal v_lmass1atom[3]
variable lmass2atom3 equal v_lmass2atom[3]
variable lmass3atom3 equal v_lmass3atom[3]
variable lmass4atom3 equal v_lmass4atom[3]
variable lmasstotatom3 equal v_lmass1atom[3]+v_lmass2atom[3]+v_lmass3atom[3]+v_lmass4atom[3]

variable lmass1atom4 equal v_lmass1atom[4]
variable lmass2atom4 equal v_lmass2atom[4]
variable lmass3atom4 equal v_lmass3atom[4]
variable lmass4atom4 equal v_lmass4atom[4]
variable lmasstotatom4 equal v_lmass1atom[4]+v_lmass2atom[4]+v_lmass3atom[4]+v_lmass4atom[4]

variable lmass1atom5 equal v_lmass1atom[5]
variable lmass2atom5 equal v_lmass2atom[5]
variable lmass3atom5 equal v_lmass3atom[5]
variable lmass4atom5 equal v_lmass4atom[5]
variable lmasstotatom5 equal v_lmass1atom[5]+v_lmass2atom[5]+v_lmass3atom[5]+v_lmass4atom[5]

# masses calculated from relative layer radii
variable lmassfromrr1atom1 equal 4.*PI*v_l1rhoeffatom1*(v_rr1atom1*v_rr1atom1*v_rr1atom1-v_rr2atom1*v_rr2atom1*v_rr2atom1)*radius[1]*radius[1]*radius[1]/3.
variable lmassfromrr2atom1 equal 4.*PI*v_l2rhoeffatom1*(v_rr2atom1*v_rr2atom1*v_rr2atom1-v_rr3atom1*v_rr3atom1*v_rr3atom1)*radius[1]*radius[1]*radius[1]/3.
variable lmassfromrr3atom1 equal 4.*PI*v_l3rhoeffatom1*(v_rr3atom1*v_rr3atom1*v_rr3atom1-v_rr4atom1*v_rr4atom1*v_rr4atom1)*radius[1]*radius[1]*radius[1]/3.
variable lmassfromrr4atom1 equal 4.*PI*v_l4rhoeffatom1*(v_rr4atom1*v_rr4atom1*v_rr4atom1)*radius[1]*radius[1]*radius[1]/3.
variable lmassfromrrtotatom1 equal v_lmassfromrr1atom1+v_lmassfromrr2atom1+v_lmassfromrr3atom1+v_lmassfromrr4atom1

variable lmassfromrr1atom2 equal 4.*PI*v_l1rhoeffatom2*(v_rr1atom2*v_rr1atom2*v_rr1atom2-v_rr2atom2*v_rr2atom2*v_rr2atom2)*radius[2]*radius[2]*radius[2]/3.
variable lmassfromrr2atom2 equal 4.*PI*v_l2rhoeffatom2*(v_rr2atom2*v_rr2atom2*v_rr2atom2-v_rr3atom2*v_rr3atom2*v_rr3atom2)*radius[2]*radius[2]*radius[2]/3.
variable lmassfromrr3atom2 equal 4.*PI*v_l3rhoeffatom2*(v_rr3atom2*v_rr3atom2*v_rr3atom2-v_rr4atom2*v_rr4atom2*v_rr4atom2)*radius[2]*radius[2]*radius[2]/3.
variable lmassfromrr4atom2 equal 4.*PI*v_l4rhoeffatom2*(v_rr4atom2*v_rr4atom2*v_rr4atom2)*radius[2]*radius[2]*radius[2]/3.
variable lmassfromrrtotatom2 equal v_lmassfromrr1atom2+v_lmassfromrr2atom2+v_lmassfromrr3atom2+v_lmassfromrr4atom2

variable lmassfromrr1atom3 equal 4.*PI*v_l1rhoeffatom3*(v_rr1atom3*v_rr1atom3*v_rr1atom3-v_rr2atom3*v_rr2atom3*v_rr2atom3)*radius[3]*radius[3]*radius[3]/3.
variable lmassfromrr2atom3 equal 4.*PI*v_l2rhoeffatom3*(v_rr2atom3*v_rr2atom3*v_rr2atom3-v_rr3atom3*v_rr3atom3*v_rr3atom3)*radius[3]*radius[3]*radius[3]/3.
variable lmassfromrr3atom3 equal 4.*PI*v_l3rhoeffatom3*(v_rr3atom3*v_rr3atom3*v_rr3atom3-v_rr4atom3*v_rr4atom3*v_rr4atom3)*radius[3]*radius[3]*radius[3]/3.
variable lmassfromrr4atom3 equal 4.*PI*v_l4rhoeffatom3*(v_rr4atom3*v_rr4atom3*v_rr4atom3)*radius[3]*radius[3]*radius[3]/3.
variable lmassfromrrtotatom3 equal v_lmassfromrr1atom3+v_lmassfromrr2atom3+v_lmassfromrr3atom3+v_lmassfromrr4atom3

variable lmassfromrr1atom4 equal 4.*PI*v_l1rhoeffatom4*(v_rr1atom4*v_rr1atom4*v_rr1atom4-v_rr2atom4*v_rr2atom4*v_rr2atom4)*radius[4]*radius[4]*radius[4]/3.
variable lmassfromrr2atom4 equal 4.*PI*v_l2rhoeffatom4*(v_rr2atom4*v_rr2atom4*v_rr2atom4-v_rr3atom4*v_rr3atom4*v_rr3atom4)*radius[4]*radius[4]*radius[4]/3.
variable lmassfromrr3atom4 equal 4.*PI*v_l3rhoeffatom4*(v_rr3atom4*v_rr3atom4*v_rr3atom4-v_rr4atom4*v_rr4atom4*v_rr4atom4)*radius[4]*radius[4]*radius[4]/3.
variable lmassfromrr4atom4 equal 4.*PI*v_l4rhoeffatom4*(v_rr4atom4*v_rr4atom4*v_rr4atom4)*radius[4]*radius[4]*radius[4]/3.
variable lmassfromrrtotatom4 equal v_lmassfromrr1atom4+v_lmassfromrr2atom4+v_lmassfromrr3atom4+v_lmassfromrr4atom4

variable lmassfromrr1atom5 equal 4.*PI*v_l1rhoeffatom5*(v_rr1atom5*v_rr1atom5*v_rr1atom5-v_rr2atom5*v_rr2atom5*v_rr2atom5)*radius[5]*radius[5]*radius[5]/3.
variable lmassfromrr2atom5 equal 4.*PI*v_l2rhoeffatom5*(v_rr2atom5*v_rr2atom5*v_rr2atom5-v_rr3atom5*v_rr3atom5*v_rr3atom5)*radius[5]*radius[5]*radius[5]/3.
variable lmassfromrr3atom5 equal 4.*PI*v_l3rhoeffatom5*(v_rr3atom5*v_rr3atom5*v_rr3atom5-v_rr4atom5*v_rr4atom5*v_rr4atom5)*radius[5]*radius[5]*radius[5]/3.
variable lmassfromrr4atom5 equal 4.*PI*v_l4rhoeffatom5*(v_rr4atom5*v_rr4atom5*v_rr4atom5)*radius[5]*radius[5]*radius[5]/3.
variable lmassfromrrtotatom5 equal v_lmassfromrr1atom5+v_lmassfromrr2atom5+v_lmassfromrr3atom5+v_lmassfromrr4atom5

fix printmasslayer1 all print ${WI} "${time} ${m1} ${lmass1atom1} ${lmass2atom1} ${lmass3atom1} ${lmass4atom1} ${lmasstotatom1} ${lmassfromrr1atom1} ${lmassfromrr2atom1} ${lmassfromrr3atom1} ${lmassfromrr4atom1} ${lmassfromrrtotatom1}" &
    file post/mass_layer_atom1.dat title "#time mass lmass1 lmass2 lmass3 lmass4 lmass_{tot} lmassfromrr1 lmassfromrr2 lmassfromrr3 lmassfromrr4 lmassfromrr_{tot}" screen no

fix printmasslayer2 all print ${WI} "${time} ${m2} ${lmass1atom2} ${lmass2atom2} ${lmass3atom2} ${lmass4atom2} ${lmasstotatom2} ${lmassfromrr1atom2} ${lmassfromrr2atom2} ${lmassfromrr3atom2} ${lmassfromrr4atom2} ${lmassfromrrtotatom2}" &
    file post/mass_layer_atom2.dat title "#time mass lmass1 lmass2 lmass3 lmass4 lmass_{tot} lmassfromrr1 lmassfromrr2 lmassfromrr3 lmassfromrr4 lmassfromrr_{tot}" screen no

fix printmasslayer3 all print ${WI} "${time} ${m3} ${lmass1atom3} ${lmass2atom3} ${lmass3atom3} ${lmass4atom3} ${lmasstotatom3} ${lmassfromrr1atom3} ${lmassfromrr2atom3} ${lmassfromrr3atom3} ${lmassfromrr4atom3} ${lmassfromrrtotatom3}" &
    file post/mass_layer_atom3.dat title "#time mass lmass1 lmass2 lmass3 lmass4 lmass_{tot} lmassfromrr1 lmassfromrr2 lmassfromrr3 lmassfromrr4 lmassfromrr_{tot}" screen no

fix printmasslayer4 all print ${WI} "${time} ${m4} ${lmass1atom4} ${lmass2atom4} ${lmass3atom4} ${lmass4atom4} ${lmasstotatom4} ${lmassfromrr1atom4} ${lmassfromrr2atom4} ${lmassfromrr3atom4} ${lmassfromrr4atom4} ${lmassfromrrtotatom4}" &
    file post/mass_layer_atom4.dat title "#time mass lmass1 lmass2 lmass3 lmass4 lmass_{tot} lmassfromrr1 lmassfromrr2 lmassfromrr3 lmassfromrr4 lmassfromrr_{tot}" screen no

fix printmasslayer5 all print ${WI} "${time} ${m5} ${lmass1atom5} ${lmass2atom5} ${lmass3atom5} ${lmass4atom5} ${lmasstotatom5} ${lmassfromrr1atom5} ${lmassfromrr2atom5} ${lmassfromrr3atom5} ${lmassfromrr4atom5} ${lmassfromrrtotatom5}" &
    file post/mass_layer_atom5.dat title "#time mass lmass1 lmass2 lmass3 lmass4 lmass_{tot} lmassfromrr1 lmassfromrr2 lmassfromrr3 lmassfromrr4 lmassfromrr_{tot}" screen no


run     600000 upto

