#Contact model example

atom_style		granular
atom_modify		map array
boundary		m m m
newton			off

echo 			both

communicate		single vel yes

units			si

region			reg block -0.5 0.5 -0.5 0.5 -0.4 0.4 units box
create_box		1 reg

neighbor		0.002 bin
neigh_modify	delay 0


#Material properties required for granular pair styles

fix 		m1 all property/global youngsModulus peratomtype 5.e6
fix 		m2 all property/global poissonsRatio peratomtype 0.45
fix 		m3 all property/global coefficientRestitution peratomtypepair 1 0.9
fix 		m4 all property/global coefficientFriction peratomtypepair 1 0.05
fix 		m5 all property/global characteristicVelocity scalar 2.

#pair style
pair_style gran model hertz tangential history #Hertzian without cohesion
pair_coeff	* *

timestep	0.00001

#region for insertion
region      upper_region block -0.5 0.5 -0.5 0.5 0.005 0.4   units box
region      lower_region block -0.5 0.5 -0.5 0.5 -0.4 -0.005 units box

group       upper_group region upper_region
group       lower_group region lower_region

# gravity
fix			gravi_upper upper_group gravity 9.81 vector 0.0 0.0 -1.0
fix			gravi_lower lower_group gravity 9.81 vector 0.0 0.0 1.0

# walls
fix zwalls1 all wall/gran model hertz tangential history primitive type 1  zplane -0.005
fix zwalls2 all wall/gran model hertz tangential history primitive type 1  zplane 0.005

fix ywalls1 all wall/gran model hertz tangential history primitive type 1  yplane -0.5
fix ywalls2 all wall/gran model hertz tangential history primitive type 1  yplane 0.5

fix xwalls1 all wall/gran model hertz tangential history primitive type 1  xplane -0.5
fix xwalls2 all wall/gran model hertz tangential history primitive type 1  xplane 0.5


# region		bc cylinder z 0.01 0.01 0.025 0.05 0.0603 units box
group		nve_group region reg

#distributions for insertion
fix			pts1 all particletemplate/sphere 5330 atom_type 1 density constant 8730 radius constant 0.01
fix			pdd1 all particledistribution/discrete 5331  1 pts1 1.0

#particle insertion
fix		ins_upper nve_group insert/pack seed 5332 distributiontemplate pdd1 &
			maxattempt 100 insert_every 3000 overlapcheck yes all_in yes vel constant 0.0 0.0 0.0 &
			region upper_region mass_in_region 436.5 ntry_mc 10000
fix		ins_lower nve_group insert/pack seed 5333 distributiontemplate pdd1 &
			maxattempt 100 insert_every 3000 overlapcheck yes all_in yes vel constant 0.0 0.0 0.0 &
			region lower_region mass_in_region 436.5 ntry_mc 10000


#apply nve integration to all particles that are inserted as single particles
fix		integr nve_group nve/sphere

#output settings, include total thermal energy
compute			rke all erotate/sphere
thermo_style	custom step atoms ke c_rke vol
thermo			1000
thermo_modify	lost ignore norm no
compute_modify	thermo_temp dynamic yes

#insert the first particles so that dump is not empty
run			1
dump		dmp all custom 800 post/dump*twoplates*.dump id type type x y z ix iy iz vx vy vz fx fy fz omegax omegay omegaz radius
group       upper_group region upper_region
group       lower_group region lower_region
unfix		ins_upper
unfix       ins_lower

#insert particles
run			10000

