package omp ${NTHREADS} force/neigh thread-binding verbose

atom_style	granular/omp
atom_modify	map array
boundary	f f f
newton		off

communicate	single vel yes

units		si

processors	* * *
read_restart    post/restart/mixer.75000

neighbor	0.002 bin
neigh_modify	delay 0

echo both

timestep	0.000005
fix		gravi all gravity/omp 9.81 vector 0.0 0.0 -1.0

# cohesion - no cohesion
#Material properties required for granular pair styles
fix 		m1 all property/global youngsModulus peratomtype 193.e6 193.e6
fix 		m2 all property/global poissonsRatio peratomtype 0.3 0.3
fix 		m3 all property/global coefficientRestitution peratomtypepair 2 0.8 0.8 0.8 0.8
fix 		m4 all property/global coefficientFriction peratomtypepair 2 0.5 0.7 0.7 0.5
fix 		m5 all property/global characteristicVelocity scalar 2.

#pair style
pair_style gran/omp model hertz
pair_coeff	* *

partitioner_style     zoltan OBJ_WEIGHT_DIM 1


fix		cadDrum all mesh/surface/omp file meshes/drum.stl type 2 scale 0.1
fix		insFace all mesh/surface/planar/omp file meshes/insertionFace.stl type 1


fix meshes all wall/gran/omp model hertz mesh n_meshes 1 meshes cadDrum

#region for insertion
#region		insertionRegion block 0.001 0.014 -0.035 0.035 -0.050 0.035 units box
region		insertionRegion cylinder x 0.0 0.0 0.076 0.001 0.014 units box


#apply nve integration to all particles that are inserted as single particles
fix		integr all nve/sphere/omp
fix ts_check all check/timestep/gran 1000 0.1 0.1 
#output settings, include total thermal energy
compute			rke all erotate/sphere
compute neighbors all neighbor/atom
thermo_style	custom step atoms ke c_rke vol
thermo			1000
thermo_modify	lost ignore norm no
compute_modify	thermo_temp dynamic yes

#insert the first particles so that dump is not empty
run 1
dump	dmp all custom/vtk 1000 post/dump*.vtp id type type x y z ix iy iz vx vy vz fx fy fz omegax omegay omegaz radius thread c_neighbors
dump_modify dmp binary yes
dump 	dumpstlmov all mesh/stl 1000 post/drum*.stl cadDrum

fix move all move/mesh mesh cadDrum rotate origin 0. 0. 0. axis  1. 0. 0. period 3.0

run 100000
