# Particle Fragmentation in a Ball Mill

atom_style  granular
atom_modify map array sort 0 0
boundary    f f f
newton      off

communicate single vel yes

units       si

read_restart    ballmill.restart


neighbor        0.01 bin
neigh_modify    delay 0

# material properties required for pair style
fix         m1 all property/global youngsModulus peratomtype 1.e7 1.e8
fix         m2 all property/global poissonsRatio peratomtype 0.25 0.25
fix         m3 all property/global coefficientRestitution peratomtypepair 2 0.97 0.97 0.97 0.97
fix         m4 all property/global coefficientFriction peratomtypepair 2 0.1 0.1 0.1 0.1

# pair style
pair_style  gran model hertz/break tangential history
pair_coeff  * *

timestep    0.00001

fix     gravi all gravity 9.81 vector 0.0 0.0 -1.0

fix     mill all mesh/surface file meshes/ballmill.stl type 2
fix     granwalls all wall/gran model hertz/break tangential history mesh n_meshes 1 meshes mill

# integrator
fix     integr all nve/sphere

# output settings
compute         rke all erotate/sphere
thermo_style    custom step atoms ke c_rke
thermo          1000
thermo_modify   lost ignore norm no
compute_modify  thermo_temp dynamic yes

fix     pts3 break particletemplate/fragments 11 atom_type 1 density constant 2650 breakage_index 0.1 0.1245 tn_family 3 2 4 8 maxattempt 300
fix     pdd3 break particledistribution/discrete 21 1 pts3 1.0
fix     breakid break break/particle seed 321 distributiontemplate pdd3 every 1 fMat 0.9 energy_threshold 0.15 min_radius 0.017

fix     move all move/mesh mesh mill rotate origin 0.0 0.0 0.0 axis  0.0 1.0 0.0 period 2.0

dump    dmpmesh all mesh/vtk 5000 post/mill*.vtk id mill
dump    dmp all custom 5000 post/dump*.run id type x y z vx vy vz fx fy fz omegax omegay omegaz radius

run     2700000 upto

