# vtk DataFile Version 3.0
LIGGGHTS grid/mesh
ASCII
DATASET UNSTRUCTURED_GRID
POINTS 30 float
-0.02 -0.02 0.0
0.0 -0.02 0.0
0.02 -0.02 0.0
-0.02 0.0 0.0
0.0 0.0 0.0
0.02 0.0 0.0
-0.02 -0.02 0.02
0.0 -0.02 0.02
0.02 -0.02 0.02
-0.02 0.0 0.02
0.0 0.0 0.02
0.02 0.0 0.02
-0.02 -0.02 0.04
0.0 -0.02 0.04
0.02 -0.02 0.04
-0.02 0.0 0.04
0.0 0.0 0.04
0.02 0.0 0.04
-0.02 -0.02 0.06
0.0 -0.02 0.06
0.02 -0.02 0.06
-0.02 0.0 0.06
0.0 0.0 0.06
0.02 0.0 0.06
-0.02 -0.02 0.08
0.0 -0.02 0.08
0.02 -0.02 0.08
-0.02 0.0 0.08
0.0 0.0 0.08
0.02 0.0 0.08


CELLS 8 72
8 0 1 4 3 6 7 10 9
8 1 2 5 4 7 8 11 10
8 6 7 10 9 12 13 16 15
8 7 8 11 10 13 14 17 16
8 12 13 16 15 18 19 22 21
8 13 14 17 16 19 20 23 22
8 18 19 22 21 24 25 28 27
8 19 20 23 22 25 26 29 28

CELL_TYPES 8
12
12
12
12
12
12
12
12

CELL_DATA 8
SCALARS cell_id int 1
LOOKUP_TABLE default
0
1
2
3
4
5
6
7
VECTORS stress_ctrl_dir double
0. 0. 1.
0. 0. 1.
0. 0. 0.
0. 0. 0.
0. 0. 0.
0. 0. 0.
0. 0. -1.
0. 0. -1.
